p tw 656 3424
1 33
2 34
3 35
4 36
5 37
6 38
7 39
8 40
9 41
10 42
11 43
12 44
13 45
14 46
15 47
16 48
17 49
18 50
19 51
20 52
21 53
22 54
23 55
24 56
25 57
26 58
27 59
28 60
29 61
30 62
31 63
32 64
33 65
33 66
33 67
33 68
33 69
33 70
34 106
34 111
34 112
34 113
34 114
34 115
35 76
35 82
35 83
35 84
35 85
35 86
36 101
36 130
36 149
36 151
36 152
36 153
37 122
37 126
37 159
37 162
37 165
37 166
38 82
38 95
38 96
38 97
38 98
38 99
39 119
39 123
39 152
39 163
39 174
39 176
40 102
40 131
40 139
40 159
40 160
40 161
41 68
41 74
41 142
41 143
41 144
41 145
42 98
42 103
42 114
42 162
42 163
42 164
43 72
43 87
43 121
43 122
43 123
43 124
44 79
44 112
44 129
44 133
44 138
44 141
45 65
45 71
45 72
45 73
45 74
45 75
46 66
46 77
46 87
46 88
46 89
46 90
47 73
47 89
47 107
47 138
47 139
47 140
48 93
48 118
48 165
48 168
48 171
48 173
49 100
49 101
49 102
49 103
49 104
49 105
50 80
50 84
50 100
50 116
50 146
50 148
51 144
51 155
51 157
51 169
51 174
51 175
52 71
52 106
52 107
52 108
52 109
52 110
53 85
53 117
53 121
53 154
53 157
53 158
54 69
54 83
54 92
54 134
54 146
54 147
55 96
55 108
55 113
55 135
55 149
55 150
56 125
56 128
56 129
56 130
56 131
56 132
57 76
57 77
57 78
57 79
57 80
57 81
58 95
58 116
58 117
58 118
58 119
58 120
59 104
59 160
59 167
59 168
59 169
59 170
60 88
60 91
60 111
60 125
60 126
60 127
61 128
61 133
61 134
61 135
61 136
61 137
62 97
62 109
62 142
62 154
62 155
62 156
63 136
63 143
63 151
63 167
63 171
63 172
64 67
64 78
64 91
64 92
64 93
64 94
65 66
65 67
65 68
65 69
65 70
65 71
65 72
65 73
65 74
65 75
66 67
66 68
66 69
66 70
66 77
66 87
66 88
66 89
66 90
67 68
67 69
67 70
67 78
67 91
67 92
67 93
67 94
68 69
68 70
68 74
68 142
68 143
68 144
68 145
69 70
69 83
69 92
69 134
69 146
69 147
70 177
70 178
70 179
70 180
70 181
70 182
71 72
71 73
71 74
71 75
71 106
71 107
71 108
71 109
71 110
72 73
72 74
72 75
72 87
72 121
72 122
72 123
72 124
73 74
73 75
73 89
73 107
73 138
73 139
73 140
74 75
74 142
74 143
74 144
74 145
75 177
75 183
75 184
75 185
75 186
75 187
76 77
76 78
76 79
76 80
76 81
76 82
76 83
76 84
76 85
76 86
77 78
77 79
77 80
77 81
77 87
77 88
77 89
77 90
78 79
78 80
78 81
78 91
78 92
78 93
78 94
79 80
79 81
79 112
79 129
79 133
79 138
79 141
80 81
80 84
80 100
80 116
80 146
80 148
81 188
81 189
81 190
81 191
81 192
81 193
82 83
82 84
82 85
82 86
82 95
82 96
82 97
82 98
82 99
83 84
83 85
83 86
83 92
83 134
83 146
83 147
84 85
84 86
84 100
84 116
84 146
84 148
85 86
85 117
85 121
85 154
85 157
85 158
86 188
86 194
86 195
86 196
86 197
86 198
87 88
87 89
87 90
87 121
87 122
87 123
87 124
88 89
88 90
88 91
88 111
88 125
88 126
88 127
89 90
89 107
89 138
89 139
89 140
90 178
90 189
90 199
90 200
90 201
90 202
91 92
91 93
91 94
91 111
91 125
91 126
91 127
92 93
92 94
92 134
92 146
92 147
93 94
93 118
93 165
93 168
93 171
93 173
94 179
94 190
94 203
94 204
94 205
94 206
95 96
95 97
95 98
95 99
95 116
95 117
95 118
95 119
95 120
96 97
96 98
96 99
96 108
96 113
96 135
96 149
96 150
97 98
97 99
97 109
97 142
97 154
97 155
97 156
98 99
98 103
98 114
98 162
98 163
98 164
99 194
99 207
99 208
99 209
99 210
99 211
100 101
100 102
100 103
100 104
100 105
100 116
100 146
100 148
101 102
101 103
101 104
101 105
101 130
101 149
101 151
101 152
101 153
102 103
102 104
102 105
102 131
102 139
102 159
102 160
102 161
103 104
103 105
103 114
103 162
103 163
103 164
104 105
104 160
104 167
104 168
104 169
104 170
105 212
105 213
105 214
105 215
105 216
105 217
106 107
106 108
106 109
106 110
106 111
106 112
106 113
106 114
106 115
107 108
107 109
107 110
107 138
107 139
107 140
108 109
108 110
108 113
108 135
108 149
108 150
109 110
109 142
109 154
109 155
109 156
110 183
110 218
110 219
110 220
110 221
110 222
111 112
111 113
111 114
111 115
111 125
111 126
111 127
112 113
112 114
112 115
112 129
112 133
112 138
112 141
113 114
113 115
113 135
113 149
113 150
114 115
114 162
114 163
114 164
115 218
115 223
115 224
115 225
115 226
115 227
116 117
116 118
116 119
116 120
116 146
116 148
117 118
117 119
117 120
117 121
117 154
117 157
117 158
118 119
118 120
118 165
118 168
118 171
118 173
119 120
119 123
119 152
119 163
119 174
119 176
120 207
120 228
120 229
120 230
120 231
120 232
121 122
121 123
121 124
121 154
121 157
121 158
122 123
122 124
122 126
122 159
122 162
122 165
122 166
123 124
123 152
123 163
123 174
123 176
124 184
124 199
124 233
124 234
124 235
124 236
125 126
125 127
125 128
125 129
125 130
125 131
125 132
126 127
126 159
126 162
126 165
126 166
127 200
127 203
127 223
127 237
127 238
127 239
128 129
128 130
128 131
128 132
128 133
128 134
128 135
128 136
128 137
129 130
129 131
129 132
129 133
129 138
129 141
130 131
130 132
130 149
130 151
130 152
130 153
131 132
131 139
131 159
131 160
131 161
132 237
132 240
132 241
132 242
132 243
132 244
133 134
133 135
133 136
133 137
133 138
133 141
134 135
134 136
134 137
134 146
134 147
135 136
135 137
135 149
135 150
136 137
136 143
136 151
136 167
136 171
136 172
137 240
137 245
137 246
137 247
137 248
137 249
138 139
138 140
138 141
139 140
139 159
139 160
139 161
140 185
140 201
140 219
140 250
140 251
140 252
141 191
141 224
141 241
141 245
141 250
141 253
142 143
142 144
142 145
142 154
142 155
142 156
143 144
143 145
143 151
143 167
143 171
143 172
144 145
144 155
144 157
144 169
144 174
144 175
145 180
145 186
145 254
145 255
145 256
145 257
146 147
146 148
147 181
147 195
147 204
147 246
147 258
147 259
148 192
148 196
148 212
148 228
148 258
148 260
149 150
149 151
149 152
149 153
150 208
150 220
150 225
150 247
150 261
150 262
151 152
151 153
151 167
151 171
151 172
152 153
152 163
152 174
152 176
153 213
153 242
153 261
153 263
153 264
153 265
154 155
154 156
154 157
154 158
155 156
155 157
155 169
155 174
155 175
156 209
156 221
156 254
156 266
156 267
156 268
157 158
157 169
157 174
157 175
158 197
158 229
158 233
158 266
158 269
158 270
159 160
159 161
159 162
159 165
159 166
160 161
160 167
160 168
160 169
160 170
161 214
161 243
161 251
161 271
161 272
161 273
162 163
162 164
162 165
162 166
163 164
163 174
163 176
164 210
164 215
164 226
164 274
164 275
164 276
165 166
165 168
165 171
165 173
166 234
166 238
166 271
166 274
166 277
166 278
167 168
167 169
167 170
167 171
167 172
168 169
168 170
168 171
168 173
169 170
169 174
169 175
170 216
170 272
170 279
170 280
170 281
170 282
171 172
171 173
172 248
172 255
172 263
172 279
172 283
172 284
173 205
173 230
173 277
173 280
173 283
173 285
174 175
174 176
175 256
175 267
175 269
175 281
175 286
175 287
176 231
176 235
176 264
176 275
176 286
176 288
177 178
177 179
177 180
177 181
177 182
177 183
177 184
177 185
177 186
177 187
178 179
178 180
178 181
178 182
178 189
178 199
178 200
178 201
178 202
179 180
179 181
179 182
179 190
179 203
179 204
179 205
179 206
180 181
180 182
180 186
180 254
180 255
180 256
180 257
181 182
181 195
181 204
181 246
181 258
181 259
182 289
182 290
182 291
182 292
182 293
182 294
183 184
183 185
183 186
183 187
183 218
183 219
183 220
183 221
183 222
184 185
184 186
184 187
184 199
184 233
184 234
184 235
184 236
185 186
185 187
185 201
185 219
185 250
185 251
185 252
186 187
186 254
186 255
186 256
186 257
187 289
187 295
187 296
187 297
187 298
187 299
188 189
188 190
188 191
188 192
188 193
188 194
188 195
188 196
188 197
188 198
189 190
189 191
189 192
189 193
189 199
189 200
189 201
189 202
190 191
190 192
190 193
190 203
190 204
190 205
190 206
191 192
191 193
191 224
191 241
191 245
191 250
191 253
192 193
192 196
192 212
192 228
192 258
192 260
193 300
193 301
193 302
193 303
193 304
193 305
194 195
194 196
194 197
194 198
194 207
194 208
194 209
194 210
194 211
195 196
195 197
195 198
195 204
195 246
195 258
195 259
196 197
196 198
196 212
196 228
196 258
196 260
197 198
197 229
197 233
197 266
197 269
197 270
198 300
198 306
198 307
198 308
198 309
198 310
199 200
199 201
199 202
199 233
199 234
199 235
199 236
200 201
200 202
200 203
200 223
200 237
200 238
200 239
201 202
201 219
201 250
201 251
201 252
202 290
202 301
202 311
202 312
202 313
202 314
203 204
203 205
203 206
203 223
203 237
203 238
203 239
204 205
204 206
204 246
204 258
204 259
205 206
205 230
205 277
205 280
205 283
205 285
206 291
206 302
206 315
206 316
206 317
206 318
207 208
207 209
207 210
207 211
207 228
207 229
207 230
207 231
207 232
208 209
208 210
208 211
208 220
208 225
208 247
208 261
208 262
209 210
209 211
209 221
209 254
209 266
209 267
209 268
210 211
210 215
210 226
210 274
210 275
210 276
211 306
211 319
211 320
211 321
211 322
211 323
212 213
212 214
212 215
212 216
212 217
212 228
212 258
212 260
213 214
213 215
213 216
213 217
213 242
213 261
213 263
213 264
213 265
214 215
214 216
214 217
214 243
214 251
214 271
214 272
214 273
215 216
215 217
215 226
215 274
215 275
215 276
216 217
216 272
216 279
216 280
216 281
216 282
217 324
217 325
217 326
217 327
217 328
217 329
218 219
218 220
218 221
218 222
218 223
218 224
218 225
218 226
218 227
219 220
219 221
219 222
219 250
219 251
219 252
220 221
220 222
220 225
220 247
220 261
220 262
221 222
221 254
221 266
221 267
221 268
222 295
222 330
222 331
222 332
222 333
222 334
223 224
223 225
223 226
223 227
223 237
223 238
223 239
224 225
224 226
224 227
224 241
224 245
224 250
224 253
225 226
225 227
225 247
225 261
225 262
226 227
226 274
226 275
226 276
227 330
227 335
227 336
227 337
227 338
227 339
228 229
228 230
228 231
228 232
228 258
228 260
229 230
229 231
229 232
229 233
229 266
229 269
229 270
230 231
230 232
230 277
230 280
230 283
230 285
231 232
231 235
231 264
231 275
231 286
231 288
232 319
232 340
232 341
232 342
232 343
232 344
233 234
233 235
233 236
233 266
233 269
233 270
234 235
234 236
234 238
234 271
234 274
234 277
234 278
235 236
235 264
235 275
235 286
235 288
236 296
236 311
236 345
236 346
236 347
236 348
237 238
237 239
237 240
237 241
237 242
237 243
237 244
238 239
238 271
238 274
238 277
238 278
239 312
239 315
239 335
239 349
239 350
239 351
240 241
240 242
240 243
240 244
240 245
240 246
240 247
240 248
240 249
241 242
241 243
241 244
241 245
241 250
241 253
242 243
242 244
242 261
242 263
242 264
242 265
243 244
243 251
243 271
243 272
243 273
244 349
244 352
244 353
244 354
244 355
244 356
245 246
245 247
245 248
245 249
245 250
245 253
246 247
246 248
246 249
246 258
246 259
247 248
247 249
247 261
247 262
248 249
248 255
248 263
248 279
248 283
248 284
249 352
249 357
249 358
249 359
249 360
249 361
250 251
250 252
250 253
251 252
251 271
251 272
251 273
252 297
252 313
252 331
252 362
252 363
252 364
253 303
253 336
253 353
253 357
253 362
253 365
254 255
254 256
254 257
254 266
254 267
254 268
255 256
255 257
255 263
255 279
255 283
255 284
256 257
256 267
256 269
256 281
256 286
256 287
257 292
257 298
257 366
257 367
257 368
257 369
258 259
258 260
259 293
259 307
259 316
259 358
259 370
259 371
260 304
260 308
260 324
260 340
260 370
260 372
261 262
261 263
261 264
261 265
262 320
262 332
262 337
262 359
262 373
262 374
263 264
263 265
263 279
263 283
263 284
264 265
264 275
264 286
264 288
265 325
265 354
265 373
265 375
265 376
265 377
266 267
266 268
266 269
266 270
267 268
267 269
267 281
267 286
267 287
268 321
268 333
268 366
268 378
268 379
268 380
269 270
269 281
269 286
269 287
270 309
270 341
270 345
270 378
270 381
270 382
271 272
271 273
271 274
271 277
271 278
272 273
272 279
272 280
272 281
272 282
273 326
273 355
273 363
273 383
273 384
273 385
274 275
274 276
274 277
274 278
275 276
275 286
275 288
276 322
276 327
276 338
276 386
276 387
276 388
277 278
277 280
277 283
277 285
278 346
278 350
278 383
278 386
278 389
278 390
279 280
279 281
279 282
279 283
279 284
280 281
280 282
280 283
280 285
281 282
281 286
281 287
282 328
282 384
282 391
282 392
282 393
282 394
283 284
283 285
284 360
284 367
284 375
284 391
284 395
284 396
285 317
285 342
285 389
285 392
285 395
285 397
286 287
286 288
287 368
287 379
287 381
287 393
287 398
287 399
288 343
288 347
288 376
288 387
288 398
288 400
289 290
289 291
289 292
289 293
289 294
289 295
289 296
289 297
289 298
289 299
290 291
290 292
290 293
290 294
290 301
290 311
290 312
290 313
290 314
291 292
291 293
291 294
291 302
291 315
291 316
291 317
291 318
292 293
292 294
292 298
292 366
292 367
292 368
292 369
293 294
293 307
293 316
293 358
293 370
293 371
294 401
294 402
294 403
294 404
294 405
294 406
295 296
295 297
295 298
295 299
295 330
295 331
295 332
295 333
295 334
296 297
296 298
296 299
296 311
296 345
296 346
296 347
296 348
297 298
297 299
297 313
297 331
297 362
297 363
297 364
298 299
298 366
298 367
298 368
298 369
299 401
299 407
299 408
299 409
299 410
299 411
300 301
300 302
300 303
300 304
300 305
300 306
300 307
300 308
300 309
300 310
301 302
301 303
301 304
301 305
301 311
301 312
301 313
301 314
302 303
302 304
302 305
302 315
302 316
302 317
302 318
303 304
303 305
303 336
303 353
303 357
303 362
303 365
304 305
304 308
304 324
304 340
304 370
304 372
305 412
305 413
305 414
305 415
305 416
305 417
306 307
306 308
306 309
306 310
306 319
306 320
306 321
306 322
306 323
307 308
307 309
307 310
307 316
307 358
307 370
307 371
308 309
308 310
308 324
308 340
308 370
308 372
309 310
309 341
309 345
309 378
309 381
309 382
310 412
310 418
310 419
310 420
310 421
310 422
311 312
311 313
311 314
311 345
311 346
311 347
311 348
312 313
312 314
312 315
312 335
312 349
312 350
312 351
313 314
313 331
313 362
313 363
313 364
314 402
314 413
314 423
314 424
314 425
314 426
315 316
315 317
315 318
315 335
315 349
315 350
315 351
316 317
316 318
316 358
316 370
316 371
317 318
317 342
317 389
317 392
317 395
317 397
318 403
318 414
318 427
318 428
318 429
318 430
319 320
319 321
319 322
319 323
319 340
319 341
319 342
319 343
319 344
320 321
320 322
320 323
320 332
320 337
320 359
320 373
320 374
321 322
321 323
321 333
321 366
321 378
321 379
321 380
322 323
322 327
322 338
322 386
322 387
322 388
323 418
323 431
323 432
323 433
323 434
323 435
324 325
324 326
324 327
324 328
324 329
324 340
324 370
324 372
325 326
325 327
325 328
325 329
325 354
325 373
325 375
325 376
325 377
326 327
326 328
326 329
326 355
326 363
326 383
326 384
326 385
327 328
327 329
327 338
327 386
327 387
327 388
328 329
328 384
328 391
328 392
328 393
328 394
329 436
329 437
329 438
329 439
329 440
329 441
330 331
330 332
330 333
330 334
330 335
330 336
330 337
330 338
330 339
331 332
331 333
331 334
331 362
331 363
331 364
332 333
332 334
332 337
332 359
332 373
332 374
333 334
333 366
333 378
333 379
333 380
334 407
334 442
334 443
334 444
334 445
334 446
335 336
335 337
335 338
335 339
335 349
335 350
335 351
336 337
336 338
336 339
336 353
336 357
336 362
336 365
337 338
337 339
337 359
337 373
337 374
338 339
338 386
338 387
338 388
339 442
339 447
339 448
339 449
339 450
339 451
340 341
340 342
340 343
340 344
340 370
340 372
341 342
341 343
341 344
341 345
341 378
341 381
341 382
342 343
342 344
342 389
342 392
342 395
342 397
343 344
343 347
343 376
343 387
343 398
343 400
344 431
344 452
344 453
344 454
344 455
344 456
345 346
345 347
345 348
345 378
345 381
345 382
346 347
346 348
346 350
346 383
346 386
346 389
346 390
347 348
347 376
347 387
347 398
347 400
348 408
348 423
348 457
348 458
348 459
348 460
349 350
349 351
349 352
349 353
349 354
349 355
349 356
350 351
350 383
350 386
350 389
350 390
351 424
351 427
351 447
351 461
351 462
351 463
352 353
352 354
352 355
352 356
352 357
352 358
352 359
352 360
352 361
353 354
353 355
353 356
353 357
353 362
353 365
354 355
354 356
354 373
354 375
354 376
354 377
355 356
355 363
355 383
355 384
355 385
356 461
356 464
356 465
356 466
356 467
356 468
357 358
357 359
357 360
357 361
357 362
357 365
358 359
358 360
358 361
358 370
358 371
359 360
359 361
359 373
359 374
360 361
360 367
360 375
360 391
360 395
360 396
361 464
361 469
361 470
361 471
361 472
361 473
362 363
362 364
362 365
363 364
363 383
363 384
363 385
364 409
364 425
364 443
364 474
364 475
364 476
365 415
365 448
365 465
365 469
365 474
365 477
366 367
366 368
366 369
366 378
366 379
366 380
367 368
367 369
367 375
367 391
367 395
367 396
368 369
368 379
368 381
368 393
368 398
368 399
369 404
369 410
369 478
369 479
369 480
369 481
370 371
370 372
371 405
371 419
371 428
371 470
371 482
371 483
372 416
372 420
372 436
372 452
372 482
372 484
373 374
373 375
373 376
373 377
374 432
374 444
374 449
374 471
374 485
374 486
375 376
375 377
375 391
375 395
375 396
376 377
376 387
376 398
376 400
377 437
377 466
377 485
377 487
377 488
377 489
378 379
378 380
378 381
378 382
379 380
379 381
379 393
379 398
379 399
380 433
380 445
380 478
380 490
380 491
380 492
381 382
381 393
381 398
381 399
382 421
382 453
382 457
382 490
382 493
382 494
383 384
383 385
383 386
383 389
383 390
384 385
384 391
384 392
384 393
384 394
385 438
385 467
385 475
385 495
385 496
385 497
386 387
386 388
386 389
386 390
387 388
387 398
387 400
388 434
388 439
388 450
388 498
388 499
388 500
389 390
389 392
389 395
389 397
390 458
390 462
390 495
390 498
390 501
390 502
391 392
391 393
391 394
391 395
391 396
392 393
392 394
392 395
392 397
393 394
393 398
393 399
394 440
394 496
394 503
394 504
394 505
394 506
395 396
395 397
396 472
396 479
396 487
396 503
396 507
396 508
397 429
397 454
397 501
397 504
397 507
397 509
398 399
398 400
399 480
399 491
399 493
399 505
399 510
399 511
400 455
400 459
400 488
400 499
400 510
400 512
401 402
401 403
401 404
401 405
401 406
401 407
401 408
401 409
401 410
401 411
402 403
402 404
402 405
402 406
402 413
402 423
402 424
402 425
402 426
403 404
403 405
403 406
403 414
403 427
403 428
403 429
403 430
404 405
404 406
404 410
404 478
404 479
404 480
404 481
405 406
405 419
405 428
405 470
405 482
405 483
406 513
406 514
406 515
406 516
406 517
406 518
407 408
407 409
407 410
407 411
407 442
407 443
407 444
407 445
407 446
408 409
408 410
408 411
408 423
408 457
408 458
408 459
408 460
409 410
409 411
409 425
409 443
409 474
409 475
409 476
410 411
410 478
410 479
410 480
410 481
411 513
411 519
411 520
411 521
411 522
411 523
412 413
412 414
412 415
412 416
412 417
412 418
412 419
412 420
412 421
412 422
413 414
413 415
413 416
413 417
413 423
413 424
413 425
413 426
414 415
414 416
414 417
414 427
414 428
414 429
414 430
415 416
415 417
415 448
415 465
415 469
415 474
415 477
416 417
416 420
416 436
416 452
416 482
416 484
417 524
417 525
417 526
417 527
417 528
417 529
418 419
418 420
418 421
418 422
418 431
418 432
418 433
418 434
418 435
419 420
419 421
419 422
419 428
419 470
419 482
419 483
420 421
420 422
420 436
420 452
420 482
420 484
421 422
421 453
421 457
421 490
421 493
421 494
422 524
422 530
422 531
422 532
422 533
422 534
423 424
423 425
423 426
423 457
423 458
423 459
423 460
424 425
424 426
424 427
424 447
424 461
424 462
424 463
425 426
425 443
425 474
425 475
425 476
426 514
426 525
426 535
426 536
426 537
426 538
427 428
427 429
427 430
427 447
427 461
427 462
427 463
428 429
428 430
428 470
428 482
428 483
429 430
429 454
429 501
429 504
429 507
429 509
430 515
430 526
430 539
430 540
430 541
430 542
431 432
431 433
431 434
431 435
431 452
431 453
431 454
431 455
431 456
432 433
432 434
432 435
432 444
432 449
432 471
432 485
432 486
433 434
433 435
433 445
433 478
433 490
433 491
433 492
434 435
434 439
434 450
434 498
434 499
434 500
435 530
435 543
435 544
435 545
435 546
435 547
436 437
436 438
436 439
436 440
436 441
436 452
436 482
436 484
437 438
437 439
437 440
437 441
437 466
437 485
437 487
437 488
437 489
438 439
438 440
438 441
438 467
438 475
438 495
438 496
438 497
439 440
439 441
439 450
439 498
439 499
439 500
440 441
440 496
440 503
440 504
440 505
440 506
441 548
441 549
441 550
441 551
441 552
441 553
442 443
442 444
442 445
442 446
442 447
442 448
442 449
442 450
442 451
443 444
443 445
443 446
443 474
443 475
443 476
444 445
444 446
444 449
444 471
444 485
444 486
445 446
445 478
445 490
445 491
445 492
446 519
446 554
446 555
446 556
446 557
446 558
447 448
447 449
447 450
447 451
447 461
447 462
447 463
448 449
448 450
448 451
448 465
448 469
448 474
448 477
449 450
449 451
449 471
449 485
449 486
450 451
450 498
450 499
450 500
451 554
451 559
451 560
451 561
451 562
451 563
452 453
452 454
452 455
452 456
452 482
452 484
453 454
453 455
453 456
453 457
453 490
453 493
453 494
454 455
454 456
454 501
454 504
454 507
454 509
455 456
455 459
455 488
455 499
455 510
455 512
456 543
456 564
456 565
456 566
456 567
456 568
457 458
457 459
457 460
457 490
457 493
457 494
458 459
458 460
458 462
458 495
458 498
458 501
458 502
459 460
459 488
459 499
459 510
459 512
460 520
460 535
460 569
460 570
460 571
460 572
461 462
461 463
461 464
461 465
461 466
461 467
461 468
462 463
462 495
462 498
462 501
462 502
463 536
463 539
463 559
463 573
463 574
463 575
464 465
464 466
464 467
464 468
464 469
464 470
464 471
464 472
464 473
465 466
465 467
465 468
465 469
465 474
465 477
466 467
466 468
466 485
466 487
466 488
466 489
467 468
467 475
467 495
467 496
467 497
468 573
468 576
468 577
468 578
468 579
468 580
469 470
469 471
469 472
469 473
469 474
469 477
470 471
470 472
470 473
470 482
470 483
471 472
471 473
471 485
471 486
472 473
472 479
472 487
472 503
472 507
472 508
473 576
473 581
473 582
473 583
473 584
473 585
474 475
474 476
474 477
475 476
475 495
475 496
475 497
476 521
476 537
476 555
476 586
476 587
476 588
477 527
477 560
477 577
477 581
477 586
477 589
478 479
478 480
478 481
478 490
478 491
478 492
479 480
479 481
479 487
479 503
479 507
479 508
480 481
480 491
480 493
480 505
480 510
480 511
481 516
481 522
481 590
481 591
481 592
481 593
482 483
482 484
483 517
483 531
483 540
483 582
483 594
483 595
484 528
484 532
484 548
484 564
484 594
484 596
485 486
485 487
485 488
485 489
486 544
486 556
486 561
486 583
486 597
486 598
487 488
487 489
487 503
487 507
487 508
488 489
488 499
488 510
488 512
489 549
489 578
489 597
489 599
489 600
489 601
490 491
490 492
490 493
490 494
491 492
491 493
491 505
491 510
491 511
492 545
492 557
492 590
492 602
492 603
492 604
493 494
493 505
493 510
493 511
494 533
494 565
494 569
494 602
494 605
494 606
495 496
495 497
495 498
495 501
495 502
496 497
496 503
496 504
496 505
496 506
497 550
497 579
497 587
497 607
497 608
497 609
498 499
498 500
498 501
498 502
499 500
499 510
499 512
500 546
500 551
500 562
500 610
500 611
500 612
501 502
501 504
501 507
501 509
502 570
502 574
502 607
502 610
502 613
502 614
503 504
503 505
503 506
503 507
503 508
504 505
504 506
504 507
504 509
505 506
505 510
505 511
506 552
506 608
506 615
506 616
506 617
506 618
507 508
507 509
508 584
508 591
508 599
508 615
508 619
508 620
509 541
509 566
509 613
509 616
509 619
509 621
510 511
510 512
511 592
511 603
511 605
511 617
511 622
511 623
512 567
512 571
512 600
512 611
512 622
512 624
513 514
513 515
513 516
513 517
513 518
513 519
513 520
513 521
513 522
513 523
514 515
514 516
514 517
514 518
514 525
514 535
514 536
514 537
514 538
515 516
515 517
515 518
515 526
515 539
515 540
515 541
515 542
516 517
516 518
516 522
516 590
516 591
516 592
516 593
517 518
517 531
517 540
517 582
517 594
517 595
518 656
519 520
519 521
519 522
519 523
519 554
519 555
519 556
519 557
519 558
520 521
520 522
520 523
520 535
520 569
520 570
520 571
520 572
521 522
521 523
521 537
521 555
521 586
521 587
521 588
522 523
522 590
522 591
522 592
522 593
523 644
524 525
524 526
524 527
524 528
524 529
524 530
524 531
524 532
524 533
524 534
525 526
525 527
525 528
525 529
525 535
525 536
525 537
525 538
526 527
526 528
526 529
526 539
526 540
526 541
526 542
527 528
527 529
527 560
527 577
527 581
527 586
527 589
528 529
528 532
528 548
528 564
528 594
528 596
529 632
530 531
530 532
530 533
530 534
530 543
530 544
530 545
530 546
530 547
531 532
531 533
531 534
531 540
531 582
531 594
531 595
532 533
532 534
532 548
532 564
532 594
532 596
533 534
533 565
533 569
533 602
533 605
533 606
534 654
535 536
535 537
535 538
535 569
535 570
535 571
535 572
536 537
536 538
536 539
536 559
536 573
536 574
536 575
537 538
537 555
537 586
537 587
537 588
538 643
539 540
539 541
539 542
539 559
539 573
539 574
539 575
540 541
540 542
540 582
540 594
540 595
541 542
541 566
541 613
541 616
541 619
541 621
542 625
543 544
543 545
543 546
543 547
543 564
543 565
543 566
543 567
543 568
544 545
544 546
544 547
544 556
544 561
544 583
544 597
544 598
545 546
545 547
545 557
545 590
545 602
545 603
545 604
546 547
546 551
546 562
546 610
546 611
546 612
547 651
548 549
548 550
548 551
548 552
548 553
548 564
548 594
548 596
549 550
549 551
549 552
549 553
549 578
549 597
549 599
549 600
549 601
550 551
550 552
550 553
550 579
550 587
550 607
550 608
550 609
551 552
551 553
551 562
551 610
551 611
551 612
552 553
552 608
552 615
552 616
552 617
552 618
553 640
554 555
554 556
554 557
554 558
554 559
554 560
554 561
554 562
554 563
555 556
555 557
555 558
555 586
555 587
555 588
556 557
556 558
556 561
556 583
556 597
556 598
557 558
557 590
557 602
557 603
557 604
558 637
559 560
559 561
559 562
559 563
559 573
559 574
559 575
560 561
560 562
560 563
560 577
560 581
560 586
560 589
561 562
561 563
561 583
561 597
561 598
562 563
562 610
562 611
562 612
563 655
564 565
564 566
564 567
564 568
564 594
564 596
565 566
565 567
565 568
565 569
565 602
565 605
565 606
566 567
566 568
566 613
566 616
566 619
566 621
567 568
567 571
567 600
567 611
567 622
567 624
568 631
569 570
569 571
569 572
569 602
569 605
569 606
570 571
570 572
570 574
570 607
570 610
570 613
570 614
571 572
571 600
571 611
571 622
571 624
572 646
573 574
573 575
573 576
573 577
573 578
573 579
573 580
574 575
574 607
574 610
574 613
574 614
575 629
576 577
576 578
576 579
576 580
576 581
576 582
576 583
576 584
576 585
577 578
577 579
577 580
577 581
577 586
577 589
578 579
578 580
578 597
578 599
578 600
578 601
579 580
579 587
579 607
579 608
579 609
580 633
581 582
581 583
581 584
581 585
581 586
581 589
582 583
582 584
582 585
582 594
582 595
583 584
583 585
583 597
583 598
584 585
584 591
584 599
584 615
584 619
584 620
585 628
586 587
586 588
586 589
587 588
587 607
587 608
587 609
588 642
589 645
590 591
590 592
590 593
590 602
590 603
590 604
591 592
591 593
591 599
591 615
591 619
591 620
592 593
592 603
592 605
592 617
592 622
592 623
593 648
594 595
594 596
595 635
596 639
597 598
597 599
597 600
597 601
598 634
599 600
599 601
599 615
599 619
599 620
600 601
600 611
600 622
600 624
601 653
602 603
602 604
602 605
602 606
603 604
603 605
603 617
603 622
603 623
604 627
605 606
605 617
605 622
605 623
606 636
607 608
607 609
607 610
607 613
607 614
608 609
608 615
608 616
608 617
608 618
609 649
610 611
610 612
610 613
610 614
611 612
611 622
611 624
612 647
613 614
613 616
613 619
613 621
614 652
615 616
615 617
615 618
615 619
615 620
616 617
616 618
616 619
616 621
617 618
617 622
617 623
618 630
619 620
619 621
620 626
621 641
622 623
622 624
623 638
624 650
